
-18.5
-8.9
-8.7
-8.5
-8.4
-8.4
-8.2
-8.2
-8.0
-7.9
-7.9
-7.9
-7.9
-7.8
-7.8
-7.6
-7.6
-7.6
-7.6
-7.5
-7.5
-7.5
-7.5
-7.5
-7.5
-7.5
-7.5
-7.5
-7.5
-7.5
-7.5
-7.5
-7.5
-7.5
-7.5
-7.5
-7.5
-7.5
-7.5
-7.5